UFFLP version 3.2.0 over 64 bit Cplex 12.5 developed by Artur Alves Pessoa and delivered by Gapso
Tried aggregator 1 time.
No LP presolve or aggregator reductions.
Presolve time = 0.00 sec. (0.00 ticks)

Iteration log . . .
Iteration:     1   Scaled dual infeas =             0.000000
Iteration:     2   Dual objective     =          6200.000000
